
Presolve eliminates 2585154 constraints and 2579634 variables.
Adjusted problem:
1127966 variables:
	1118766 binary variables
	9200 linear variables
1141294 constraints, all linear; 8886924 nonzeros
	18802 equality constraints
	1122492 inequality constraints
1 linear objective; 1109566 nonzeros.

Gurobi 9.1.2: mipgap 0.01
outlev 1
timelim 3600
Gurobi Optimizer version 9.1.2 build v9.1.2rc0 (linux64)
Thread count: 4 physical cores, 4 logical processors, using up to 4 threads
Optimize a model with 1141294 rows, 1127966 columns and 8886924 nonzeros
Model fingerprint: 0xf0f150d5
Variable types: 9200 continuous, 1118766 integer (1118766 binary)
Coefficient statistics:
  Matrix range     [8e-02, 1e+02]
  Objective range  [4e+01, 7e+03]
  Bounds range     [1e+00, 1e+02]
  RHS range        [1e+00, 1e+02]
Presolve removed 0 rows and 0 columns (presolve time = 15s) ...
Presolve removed 0 rows and 0 columns (presolve time = 15s) ...
Presolve removed 0 rows and 0 columns (presolve time = 21s) ...
Presolve removed 0 rows and 0 columns (presolve time = 25s) ...
Presolve removed 0 rows and 0 columns (presolve time = 30s) ...
Presolve removed 0 rows and 0 columns (presolve time = 35s) ...
Presolve removed 18400 rows and 0 columns (presolve time = 45s) ...
Presolve removed 18400 rows and 0 columns (presolve time = 45s) ...
Presolve removed 18400 rows and 0 columns (presolve time = 50s) ...
Presolve removed 18400 rows and 0 columns (presolve time = 64s) ...
Presolve removed 18400 rows and 0 columns (presolve time = 73s) ...
Presolve removed 18400 rows and 0 columns
Presolve time: 73.32s
Presolved: 1122894 rows, 1127966 columns, 5575706 nonzeros
Variable types: 9200 continuous, 1118766 integer (1118766 binary)

Deterministic concurrent LP optimizer: primal simplex, dual simplex, and barrier
Showing barrier log only...

Root barrier log...

Elapsed ordering time = 5s
Elapsed ordering time = 10s
Elapsed ordering time = 15s
Elapsed ordering time = 20s
Elapsed ordering time = 25s
Elapsed ordering time = 30s
Elapsed ordering time = 35s
Elapsed ordering time = 40s
Elapsed ordering time = 45s
Elapsed ordering time = 253s
Elapsed ordering time = 268s
Elapsed ordering time = 272s
Elapsed ordering time = 276s
Elapsed ordering time = 281s
Elapsed ordering time = 286s
Elapsed ordering time = 291s
Elapsed ordering time = 296s
Elapsed ordering time = 302s
Elapsed ordering time = 306s
Elapsed ordering time = 312s
Elapsed ordering time = 317s
Elapsed ordering time = 323s
Elapsed ordering time = 328s
Elapsed ordering time = 334s
Elapsed ordering time = 339s
Elapsed ordering time = 345s
Elapsed ordering time = 350s
Elapsed ordering time = 355s
Elapsed ordering time = 364s
Elapsed ordering time = 369s
Elapsed ordering time = 374s
Elapsed ordering time = 380s
Elapsed ordering time = 387s
Elapsed ordering time = 390s
Elapsed ordering time = 397s
Elapsed ordering time = 402s
Elapsed ordering time = 407s
Elapsed ordering time = 412s
Elapsed ordering time = 416s
Elapsed ordering time = 420s
Elapsed ordering time = 426s
Elapsed ordering time = 431s
Elapsed ordering time = 443s
Elapsed ordering time = 445s
Elapsed ordering time = 450s
Elapsed ordering time = 455s
Elapsed ordering time = 460s
Elapsed ordering time = 465s
Elapsed ordering time = 470s
Elapsed ordering time = 475s
Elapsed ordering time = 480s
Elapsed ordering time = 485s
Elapsed ordering time = 490s
Elapsed ordering time = 495s
Elapsed ordering time = 500s
Elapsed ordering time = 643s
Elapsed ordering time = 659s
Elapsed ordering time = 664s
Elapsed ordering time = 669s
Elapsed ordering time = 674s
Elapsed ordering time = 679s
Elapsed ordering time = 685s
Elapsed ordering time = 690s
Elapsed ordering time = 695s
Elapsed ordering time = 704s
Elapsed ordering time = 709s
Elapsed ordering time = 714s
Elapsed ordering time = 720s
Elapsed ordering time = 725s
Elapsed ordering time = 730s
Elapsed ordering time = 735s
Elapsed ordering time = 740s
Elapsed ordering time = 745s
Elapsed ordering time = 750s
Elapsed ordering time = 755s
Elapsed ordering time = 761s
Elapsed ordering time = 766s
Elapsed ordering time = 772s
Elapsed ordering time = 779s
Elapsed ordering time = 782s
Elapsed ordering time = 787s
Elapsed ordering time = 792s
Elapsed ordering time = 796s
Elapsed ordering time = 801s
Elapsed ordering time = 806s
Elapsed ordering time = 811s
Elapsed ordering time = 816s
Elapsed ordering time = 821s
Elapsed ordering time = 831s
Elapsed ordering time = 835s
Elapsed ordering time = 840s
Elapsed ordering time = 845s
Elapsed ordering time = 850s
Elapsed ordering time = 855s
Elapsed ordering time = 860s
Elapsed ordering time = 865s
Elapsed ordering time = 870s
Elapsed ordering time = 875s
Elapsed ordering time = 880s
Elapsed ordering time = 885s
Elapsed ordering time = 890s
Elapsed ordering time = 1025s
Elapsed ordering time = 1039s
Elapsed ordering time = 1044s
Elapsed ordering time = 1048s
Elapsed ordering time = 1053s
Elapsed ordering time = 1058s
Elapsed ordering time = 1063s
Elapsed ordering time = 1068s
Elapsed ordering time = 1073s
Elapsed ordering time = 1078s
Elapsed ordering time = 1084s
Elapsed ordering time = 1089s
Elapsed ordering time = 1095s
Elapsed ordering time = 1100s
Elapsed ordering time = 1111s
Elapsed ordering time = 1115s
Elapsed ordering time = 1121s
Elapsed ordering time = 1126s
Elapsed ordering time = 1131s
Elapsed ordering time = 1135s
Elapsed ordering time = 1140s
Elapsed ordering time = 1146s
Elapsed ordering time = 1151s
Elapsed ordering time = 1160s
Elapsed ordering time = 1162s
Elapsed ordering time = 1165s
Elapsed ordering time = 1170s
Elapsed ordering time = 1178s
Elapsed ordering time = 1180s
Elapsed ordering time = 1186s
Elapsed ordering time = 1191s
Elapsed ordering time = 1196s
Elapsed ordering time = 1201s
Elapsed ordering time = 1205s
Elapsed ordering time = 1214s
Elapsed ordering time = 1215s
Elapsed ordering time = 1220s
Elapsed ordering time = 1225s
Elapsed ordering time = 1230s
Elapsed ordering time = 1235s
Elapsed ordering time = 1240s
Elapsed ordering time = 1245s
Elapsed ordering time = 1250s
Elapsed ordering time = 1255s
Elapsed ordering time = 1261s
Elapsed ordering time = 1265s
Elapsed ordering time = 1270s
Elapsed ordering time = 1275s
Elapsed ordering time = 1280s
Elapsed ordering time = 1389s
Elapsed ordering time = 1403s
Elapsed ordering time = 1407s
Elapsed ordering time = 1413s
Elapsed ordering time = 1418s
Elapsed ordering time = 1423s
Elapsed ordering time = 1428s
Elapsed ordering time = 1434s
Elapsed ordering time = 1439s
Elapsed ordering time = 1445s
Elapsed ordering time = 1449s
Elapsed ordering time = 1454s
Elapsed ordering time = 1460s
Elapsed ordering time = 1465s
Elapsed ordering time = 1471s
Elapsed ordering time = 1477s
Elapsed ordering time = 1482s
Elapsed ordering time = 1488s
Elapsed ordering time = 1493s
Elapsed ordering time = 1498s
Elapsed ordering time = 1502s
Elapsed ordering time = 1506s
Elapsed ordering time = 1511s
Elapsed ordering time = 1516s
Elapsed ordering time = 1522s
Elapsed ordering time = 1526s
Elapsed ordering time = 1532s
Elapsed ordering time = 1537s
Elapsed ordering time = 1541s
Elapsed ordering time = 1546s
Elapsed ordering time = 1551s
Elapsed ordering time = 1556s
Elapsed ordering time = 1560s
Elapsed ordering time = 1565s
Elapsed ordering time = 1570s
Elapsed ordering time = 1575s
Elapsed ordering time = 1580s
Elapsed ordering time = 1585s
Elapsed ordering time = 1590s
Elapsed ordering time = 1595s
Elapsed ordering time = 1600s
Elapsed ordering time = 1709s
Elapsed ordering time = 1719s
Elapsed ordering time = 1723s
Elapsed ordering time = 1728s
Elapsed ordering time = 1734s
Elapsed ordering time = 1739s
Elapsed ordering time = 1743s
Elapsed ordering time = 1748s
Elapsed ordering time = 1753s
Elapsed ordering time = 1757s
Elapsed ordering time = 1761s
Elapsed ordering time = 1766s
Elapsed ordering time = 1774s
Elapsed ordering time = 1778s
Elapsed ordering time = 1782s
Elapsed ordering time = 1787s
Elapsed ordering time = 1791s
Elapsed ordering time = 1796s
Elapsed ordering time = 1800s
Elapsed ordering time = 1805s
Elapsed ordering time = 1814s
Elapsed ordering time = 1819s
Elapsed ordering time = 1826s
Elapsed ordering time = 1830s
Elapsed ordering time = 1836s
Elapsed ordering time = 1842s
Elapsed ordering time = 1846s
Elapsed ordering time = 1852s
Elapsed ordering time = 1857s
Elapsed ordering time = 1861s
Elapsed ordering time = 1867s
Elapsed ordering time = 1871s
Elapsed ordering time = 1877s
Elapsed ordering time = 1880s
Elapsed ordering time = 1885s
Elapsed ordering time = 1890s
Elapsed ordering time = 1895s
Elapsed ordering time = 1900s
Elapsed ordering time = 1905s
Elapsed ordering time = 1910s
Elapsed ordering time = 1915s
Elapsed ordering time = 1920s
Elapsed ordering time = 1925s
Elapsed ordering time = 1930s
Elapsed ordering time = 1935s
Ordering time: 1937.95s

Barrier statistics:
 Dense cols : 69
 AA' NZ     : 2.654e+08
 Factor NZ  : 1.718e+10 (roughly 140.0 GBytes of memory)
 Factor Ops : 3.449e+14 (roughly 60000 seconds per iteration)
 Threads    : 1

Barrier performed 0 iterations in 2409.90 seconds
Error termination

Concurrent spin time: 1189.55s (can be avoided by choosing Method=3)

Solved with dual simplex

Root relaxation: objective 1.250575e+05, 83096 iterations, 3467.95 seconds

    Nodes    |    Current Node    |     Objective Bounds      |     Work
 Expl Unexpl |  Obj  Depth IntInf | Incumbent    BestBd   Gap | It/Node Time

     0     0 125057.492    0 1578          - 125057.492      -     - 3606s

Explored 0 nodes (83096 simplex iterations) in 3606.43 seconds
Thread count was 4 (of 4 available processors)

Solution count 0

Time limit reached
Best objective -, best bound 1.250580000000e+05, gap -
Gurobi 9.1.2: time limit without a feasible solution
83096 simplex iterations
No basis.
No primal or dual variables returned.
sum{(i,j) in Arcs, k in K: i != j} c[i,j]*x[i,j,k] + sum{(i,j) in Arcs, 
  k in K} cto[i,j]*x[i,j,k] = 0

sum{(i,j) in Arcs, k in K: i != j} c[i,j]*x[i,j,k] = 0

sum{(i,j) in Arcs, k in K: i != j} cto[i,j]*x[i,j,k] = 0

COST = 0

